94,11
15,54
71,41
87,90
47,31
18,94
22,90
24,68
40,51
30,21
55,38
82,65
97,17
31,51
94,47
35,21
41,46
36,63
68,91
84,11
24,90
75,33
60,86
35,87
52,83
38,18
97,56
50,97
42,93
27,82
24,51
85,90
35,54
80,62
88,52
25,84
55,36
33,21
79,17
42,55
85,68
33,78
77,93
60,63
15,20
73,78
40,70
46,62
33,12
66,99
37,25
36,96
48,16
30,81
89,36
13,28
31,19
94,79
30,49
44,34
97,88
54,93
23,32
46,11
63,11
70,12
77,69
73,39
15,86
22,20
11,35
48,12
52,22
40,61
91,23

218
216
222
220
195
212
165
221
226
